100
32
16
31
23
5
5
7
6
32
22
13
9
18
32
6
11
31
19
31
32
8
15
1
10
10
1
19
6
23
22
10
32
8
32
28
15
12
26
15
6
10
31
3
4
25
17
4
11
4
5
16
18
2
26
32
27
14
1
2
9
20
3
6
17
15
18
12
18
3
25
10
32
7
13
19
4
6
4
5
24
17
2
4
3
24
26
2
14
18
7
4
3
6
18
2
32
2
8
32
3
1